187
186
63
62
61
60
59
58
57
56
55
54
53
52
51
155
154
153
152
151
26
27
28
29
30
31
32
33
34
35
36
37
38
39
40
41
42
43
44
45
46
47
48
49
50
150
149
148
147
146
25
24
23
22
21
20
19
18
17
16
15
14
13
12
11
10
9
8
7
6
5
4
3
2
1
126
127
128
129
130
135
134
133
132
131
136
137
138
139
140
161
162
163
164
165
64
65
66
67
68
69
70
71
72
73
74
75
175
174
173
172
171
166
167
168
169
170
191
192
193
194
195
94
93
92
91
90
89
88
87
86
85
84
83
82
81
80
79
78
77
76
180
179
178
177
176
181
182
183
184
185
206
207
208
209
210
107
106
105
104
103
102
101
205
204
203
202
201
108
109
110
111
112
113
114
115
116
117
118
119
120
121
122
123
124
125
225
224
223
222
221
100
99
98
97
96
95
216
217
218
219
220
215
214
213
212
211
190
189
188
160
159
158
157
156
145
144
143
142
141
196
197
198
199
200
187
